p cnf 336 1289
1 2 3 4 5 6 0
-1 217 0
-2 218 0
-217 218 0
-217 -2 0
-3 219 0
-218 219 0
-218 -3 0
-4 220 0
-219 220 0
-219 -4 0
-5 221 0
-220 221 0
-220 -5 0
-221 -6 0
-1 37 0
-1 7 0
-2 38 0
-2 8 0
-3 39 0
-3 9 0
-4 40 0
-4 10 0
-5 41 0
-5 11 0
-6 42 0
-6 12 0
7 8 9 10 11 12 0
-7 222 0
-8 223 0
-222 223 0
-222 -8 0
-9 224 0
-223 224 0
-223 -9 0
-10 225 0
-224 225 0
-224 -10 0
-11 226 0
-225 226 0
-225 -11 0
-226 -12 0
-7 1 13 0
-7 1 43 0
-7 13 43 0
-8 2 14 0
-8 2 44 0
-8 14 44 0
-9 3 15 0
-9 3 45 0
-9 15 45 0
-10 4 16 0
-10 4 46 0
-10 16 46 0
-11 5 17 0
-11 5 47 0
-11 17 47 0
-12 6 18 0
-12 6 48 0
-12 18 48 0
-7 -1 -13 -43 0
-8 -2 -14 -44 0
-9 -3 -15 -45 0
-10 -4 -16 -46 0
-11 -5 -17 -47 0
-12 -6 -18 -48 0
13 14 15 16 17 18 0
-13 227 0
-14 228 0
-227 228 0
-227 -14 0
-15 229 0
-228 229 0
-228 -15 0
-16 230 0
-229 230 0
-229 -16 0
-17 231 0
-230 231 0
-230 -17 0
-231 -18 0
-13 7 19 0
-13 7 49 0
-13 19 49 0
-14 8 20 0
-14 8 50 0
-14 20 50 0
-15 9 21 0
-15 9 51 0
-15 21 51 0
-16 10 22 0
-16 10 52 0
-16 22 52 0
-17 11 23 0
-17 11 53 0
-17 23 53 0
-18 12 24 0
-18 12 54 0
-18 24 54 0
-13 -7 -19 -49 0
-14 -8 -20 -50 0
-15 -9 -21 -51 0
-16 -10 -22 -52 0
-17 -11 -23 -53 0
-18 -12 -24 -54 0
19 20 21 22 23 24 0
-19 232 0
-20 233 0
-232 233 0
-232 -20 0
-21 234 0
-233 234 0
-233 -21 0
-22 235 0
-234 235 0
-234 -22 0
-23 236 0
-235 236 0
-235 -23 0
-236 -24 0
-19 13 25 0
-19 13 55 0
-19 25 55 0
-20 14 26 0
-20 14 56 0
-20 26 56 0
-21 15 27 0
-21 15 57 0
-21 27 57 0
-22 16 28 0
-22 16 58 0
-22 28 58 0
-23 17 29 0
-23 17 59 0
-23 29 59 0
-24 18 30 0
-24 18 60 0
-24 30 60 0
-19 -13 -25 -55 0
-20 -14 -26 -56 0
-21 -15 -27 -57 0
-22 -16 -28 -58 0
-23 -17 -29 -59 0
-24 -18 -30 -60 0
25 26 27 28 29 30 0
-25 237 0
-26 238 0
-237 238 0
-237 -26 0
-27 239 0
-238 239 0
-238 -27 0
-28 240 0
-239 240 0
-239 -28 0
-29 241 0
-240 241 0
-240 -29 0
-241 -30 0
-25 19 31 0
-25 19 61 0
-25 31 61 0
-26 20 32 0
-26 20 62 0
-26 32 62 0
-27 21 33 0
-27 21 63 0
-27 33 63 0
-28 22 34 0
-28 22 64 0
-28 34 64 0
-29 23 35 0
-29 23 65 0
-29 35 65 0
-30 24 36 0
-30 24 66 0
-30 36 66 0
-25 -19 -31 -61 0
-26 -20 -32 -62 0
-27 -21 -33 -63 0
-28 -22 -34 -64 0
-29 -23 -35 -65 0
-30 -24 -36 -66 0
-32 0
-33 0
-34 0
-35 0
-36 0
31 0
67 25 0
-67 -25 0
-38 0
-39 0
-40 0
-41 0
-42 0
37 0
73 43 1 0
-73 -43 0
-73 -1 0
-43 -1 0
43 44 45 46 47 48 0
-43 242 0
-44 243 0
-242 243 0
-242 -44 0
-45 244 0
-243 244 0
-243 -45 0
-46 245 0
-244 245 0
-244 -46 0
-47 246 0
-245 246 0
-245 -47 0
-246 -48 0
-43 79 49 7 0
-43 79 49 37 0
-43 79 7 37 0
-43 49 7 37 0
-44 80 50 8 0
-44 80 50 38 0
-44 80 8 38 0
-44 50 8 38 0
-45 81 51 9 0
-45 81 51 39 0
-45 81 9 39 0
-45 51 9 39 0
-46 82 52 10 0
-46 82 52 40 0
-46 82 10 40 0
-46 52 10 40 0
-47 83 53 11 0
-47 83 53 41 0
-47 83 11 41 0
-47 53 11 41 0
-48 84 54 12 0
-48 84 54 42 0
-48 84 12 42 0
-48 54 12 42 0
-43 -79 -49 -7 0
-43 -79 -49 -37 0
-43 -79 -7 -37 0
-43 -49 -7 -37 0
-44 -80 -50 -8 0
-44 -80 -50 -38 0
-44 -80 -8 -38 0
-44 -50 -8 -38 0
-45 -81 -51 -9 0
-45 -81 -51 -39 0
-45 -81 -9 -39 0
-45 -51 -9 -39 0
-46 -82 -52 -10 0
-46 -82 -52 -40 0
-46 -82 -10 -40 0
-46 -52 -10 -40 0
-47 -83 -53 -11 0
-47 -83 -53 -41 0
-47 -83 -11 -41 0
-47 -53 -11 -41 0
-48 -84 -54 -12 0
-48 -84 -54 -42 0
-48 -84 -12 -42 0
-48 -54 -12 -42 0
-49 0
-51 0
-52 0
-53 0
-54 0
50 0
86 56 14 44 0
-86 -56 0
-86 -14 0
-86 -44 0
-56 -14 0
-56 -44 0
-14 -44 0
55 56 57 58 59 60 0
-55 247 0
-56 248 0
-247 248 0
-247 -56 0
-57 249 0
-248 249 0
-248 -57 0
-58 250 0
-249 250 0
-249 -58 0
-59 251 0
-250 251 0
-250 -59 0
-251 -60 0
-55 91 61 19 0
-55 91 61 49 0
-55 91 19 49 0
-55 61 19 49 0
-56 92 62 20 0
-56 92 62 50 0
-56 92 20 50 0
-56 62 20 50 0
-57 93 63 21 0
-57 93 63 51 0
-57 93 21 51 0
-57 63 21 51 0
-58 94 64 22 0
-58 94 64 52 0
-58 94 22 52 0
-58 64 22 52 0
-59 95 65 23 0
-59 95 65 53 0
-59 95 23 53 0
-59 65 23 53 0
-60 96 66 24 0
-60 96 66 54 0
-60 96 24 54 0
-60 66 24 54 0
-55 -91 -61 -19 0
-55 -91 -61 -49 0
-55 -91 -19 -49 0
-55 -61 -19 -49 0
-56 -92 -62 -20 0
-56 -92 -62 -50 0
-56 -92 -20 -50 0
-56 -62 -20 -50 0
-57 -93 -63 -21 0
-57 -93 -63 -51 0
-57 -93 -21 -51 0
-57 -63 -21 -51 0
-58 -94 -64 -22 0
-58 -94 -64 -52 0
-58 -94 -22 -52 0
-58 -64 -22 -52 0
-59 -95 -65 -23 0
-59 -95 -65 -53 0
-59 -95 -23 -53 0
-59 -65 -23 -53 0
-60 -96 -66 -24 0
-60 -96 -66 -54 0
-60 -96 -24 -54 0
-60 -66 -24 -54 0
-61 0
-62 0
-64 0
-65 0
-66 0
63 0
99 69 27 57 0
-99 -69 0
-99 -27 0
-99 -57 0
-69 -27 0
-69 -57 0
-27 -57 0
-67 0
-68 0
-69 0
-71 0
-72 0
70 0
106 64 34 0
-106 -64 0
-106 -34 0
-64 -34 0
-73 0
-75 0
-76 0
-77 0
-78 0
74 0
110 80 38 0
-110 -80 0
-110 -38 0
-80 -38 0
79 80 81 82 83 84 0
-79 252 0
-80 253 0
-252 253 0
-252 -80 0
-81 254 0
-253 254 0
-253 -81 0
-82 255 0
-254 255 0
-254 -82 0
-83 256 0
-255 256 0
-255 -83 0
-256 -84 0
-79 115 85 43 0
-79 115 85 73 0
-79 115 43 73 0
-79 85 43 73 0
-80 116 86 44 0
-80 116 86 74 0
-80 116 44 74 0
-80 86 44 74 0
-81 117 87 45 0
-81 117 87 75 0
-81 117 45 75 0
-81 87 45 75 0
-82 118 88 46 0
-82 118 88 76 0
-82 118 46 76 0
-82 88 46 76 0
-83 119 89 47 0
-83 119 89 77 0
-83 119 47 77 0
-83 89 47 77 0
-84 120 90 48 0
-84 120 90 78 0
-84 120 48 78 0
-84 90 48 78 0
-79 -115 -85 -43 0
-79 -115 -85 -73 0
-79 -115 -43 -73 0
-79 -85 -43 -73 0
-80 -116 -86 -44 0
-80 -116 -86 -74 0
-80 -116 -44 -74 0
-80 -86 -44 -74 0
-81 -117 -87 -45 0
-81 -117 -87 -75 0
-81 -117 -45 -75 0
-81 -87 -45 -75 0
-82 -118 -88 -46 0
-82 -118 -88 -76 0
-82 -118 -46 -76 0
-82 -88 -46 -76 0
-83 -119 -89 -47 0
-83 -119 -89 -77 0
-83 -119 -47 -77 0
-83 -89 -47 -77 0
-84 -120 -90 -48 0
-84 -120 -90 -78 0
-84 -120 -48 -78 0
-84 -90 -48 -78 0
-85 0
-86 0
-87 0
-89 0
-90 0
88 0
124 94 52 82 0
-124 -94 0
-124 -52 0
-124 -82 0
-94 -52 0
-94 -82 0
-52 -82 0
-91 0
-92 0
-94 0
-95 0
-96 0
93 0
129 99 57 87 0
-129 -99 0
-129 -57 0
-129 -87 0
-99 -57 0
-99 -87 0
-57 -87 0
97 98 99 100 101 102 0
-97 257 0
-98 258 0
-257 258 0
-257 -98 0
-99 259 0
-258 259 0
-258 -99 0
-100 260 0
-259 260 0
-259 -100 0
-101 261 0
-260 261 0
-260 -101 0
-261 -102 0
-97 133 103 61 0
-97 133 103 91 0
-97 133 61 91 0
-97 103 61 91 0
-98 134 104 62 0
-98 134 104 92 0
-98 134 62 92 0
-98 104 62 92 0
-99 135 105 63 0
-99 135 105 93 0
-99 135 63 93 0
-99 105 63 93 0
-100 136 106 64 0
-100 136 106 94 0
-100 136 64 94 0
-100 106 64 94 0
-101 137 107 65 0
-101 137 107 95 0
-101 137 65 95 0
-101 107 65 95 0
-102 138 108 66 0
-102 138 108 96 0
-102 138 66 96 0
-102 108 66 96 0
-97 -133 -103 -61 0
-97 -133 -103 -91 0
-97 -133 -61 -91 0
-97 -103 -61 -91 0
-98 -134 -104 -62 0
-98 -134 -104 -92 0
-98 -134 -62 -92 0
-98 -104 -62 -92 0
-99 -135 -105 -63 0
-99 -135 -105 -93 0
-99 -135 -63 -93 0
-99 -105 -63 -93 0
-100 -136 -106 -64 0
-100 -136 -106 -94 0
-100 -136 -64 -94 0
-100 -106 -64 -94 0
-101 -137 -107 -65 0
-101 -137 -107 -95 0
-101 -137 -65 -95 0
-101 -107 -65 -95 0
-102 -138 -108 -66 0
-102 -138 -108 -96 0
-102 -138 -66 -96 0
-102 -108 -66 -96 0
103 104 105 106 107 108 0
-103 262 0
-104 263 0
-262 263 0
-262 -104 0
-105 264 0
-263 264 0
-263 -105 0
-106 265 0
-264 265 0
-264 -106 0
-107 266 0
-265 266 0
-265 -107 0
-266 -108 0
-103 139 97 0
-103 139 67 0
-103 97 67 0
-104 140 98 0
-104 140 68 0
-104 98 68 0
-105 141 99 0
-105 141 69 0
-105 99 69 0
-106 142 100 0
-106 142 70 0
-106 100 70 0
-107 143 101 0
-107 143 71 0
-107 101 71 0
-108 144 102 0
-108 144 72 0
-108 102 72 0
-103 -139 -97 -67 0
-104 -140 -98 -68 0
-105 -141 -99 -69 0
-106 -142 -100 -70 0
-107 -143 -101 -71 0
-108 -144 -102 -72 0
-109 0
-110 0
-111 0
-112 0
-114 0
113 0
149 119 77 0
-149 -119 0
-149 -77 0
-119 -77 0
-115 0
-116 0
-117 0
-118 0
-119 0
120 0
156 126 84 114 0
-156 -126 0
-156 -84 0
-156 -114 0
-126 -84 0
-126 -114 0
-84 -114 0
121 122 123 124 125 126 0
-121 267 0
-122 268 0
-267 268 0
-267 -122 0
-123 269 0
-268 269 0
-268 -123 0
-124 270 0
-269 270 0
-269 -124 0
-125 271 0
-270 271 0
-270 -125 0
-271 -126 0
-121 157 127 85 0
-121 157 127 115 0
-121 157 85 115 0
-121 127 85 115 0
-122 158 128 86 0
-122 158 128 116 0
-122 158 86 116 0
-122 128 86 116 0
-123 159 129 87 0
-123 159 129 117 0
-123 159 87 117 0
-123 129 87 117 0
-124 160 130 88 0
-124 160 130 118 0
-124 160 88 118 0
-124 130 88 118 0
-125 161 131 89 0
-125 161 131 119 0
-125 161 89 119 0
-125 131 89 119 0
-126 162 132 90 0
-126 162 132 120 0
-126 162 90 120 0
-126 132 90 120 0
-121 -157 -127 -85 0
-121 -157 -127 -115 0
-121 -157 -85 -115 0
-121 -127 -85 -115 0
-122 -158 -128 -86 0
-122 -158 -128 -116 0
-122 -158 -86 -116 0
-122 -128 -86 -116 0
-123 -159 -129 -87 0
-123 -159 -129 -117 0
-123 -159 -87 -117 0
-123 -129 -87 -117 0
-124 -160 -130 -88 0
-124 -160 -130 -118 0
-124 -160 -88 -118 0
-124 -130 -88 -118 0
-125 -161 -131 -89 0
-125 -161 -131 -119 0
-125 -161 -89 -119 0
-125 -131 -89 -119 0
-126 -162 -132 -90 0
-126 -162 -132 -120 0
-126 -162 -90 -120 0
-126 -132 -90 -120 0
127 128 129 130 131 132 0
-127 272 0
-128 273 0
-272 273 0
-272 -128 0
-129 274 0
-273 274 0
-273 -129 0
-130 275 0
-274 275 0
-274 -130 0
-131 276 0
-275 276 0
-275 -131 0
-276 -132 0
-127 163 133 91 0
-127 163 133 121 0
-127 163 91 121 0
-127 133 91 121 0
-128 164 134 92 0
-128 164 134 122 0
-128 164 92 122 0
-128 134 92 122 0
-129 165 135 93 0
-129 165 135 123 0
-129 165 93 123 0
-129 135 93 123 0
-130 166 136 94 0
-130 166 136 124 0
-130 166 94 124 0
-130 136 94 124 0
-131 167 137 95 0
-131 167 137 125 0
-131 167 95 125 0
-131 137 95 125 0
-132 168 138 96 0
-132 168 138 126 0
-132 168 96 126 0
-132 138 96 126 0
-127 -163 -133 -91 0
-127 -163 -133 -121 0
-127 -163 -91 -121 0
-127 -133 -91 -121 0
-128 -164 -134 -92 0
-128 -164 -134 -122 0
-128 -164 -92 -122 0
-128 -134 -92 -122 0
-129 -165 -135 -93 0
-129 -165 -135 -123 0
-129 -165 -93 -123 0
-129 -135 -93 -123 0
-130 -166 -136 -94 0
-130 -166 -136 -124 0
-130 -166 -94 -124 0
-130 -136 -94 -124 0
-131 -167 -137 -95 0
-131 -167 -137 -125 0
-131 -167 -95 -125 0
-131 -137 -95 -125 0
-132 -168 -138 -96 0
-132 -168 -138 -126 0
-132 -168 -96 -126 0
-132 -138 -96 -126 0
133 134 135 136 137 138 0
-133 277 0
-134 278 0
-277 278 0
-277 -134 0
-135 279 0
-278 279 0
-278 -135 0
-136 280 0
-279 280 0
-279 -136 0
-137 281 0
-280 281 0
-280 -137 0
-281 -138 0
-133 169 139 97 0
-133 169 139 127 0
-133 169 97 127 0
-133 139 97 127 0
-134 170 140 98 0
-134 170 140 128 0
-134 170 98 128 0
-134 140 98 128 0
-135 171 141 99 0
-135 171 141 129 0
-135 171 99 129 0
-135 141 99 129 0
-136 172 142 100 0
-136 172 142 130 0
-136 172 100 130 0
-136 142 100 130 0
-137 173 143 101 0
-137 173 143 131 0
-137 173 101 131 0
-137 143 101 131 0
-138 174 144 102 0
-138 174 144 132 0
-138 174 102 132 0
-138 144 102 132 0
-133 -169 -139 -97 0
-133 -169 -139 -127 0
-133 -169 -97 -127 0
-133 -139 -97 -127 0
-134 -170 -140 -98 0
-134 -170 -140 -128 0
-134 -170 -98 -128 0
-134 -140 -98 -128 0
-135 -171 -141 -99 0
-135 -171 -141 -129 0
-135 -171 -99 -129 0
-135 -141 -99 -129 0
-136 -172 -142 -100 0
-136 -172 -142 -130 0
-136 -172 -100 -130 0
-136 -142 -100 -130 0
-137 -173 -143 -101 0
-137 -173 -143 -131 0
-137 -173 -101 -131 0
-137 -143 -101 -131 0
-138 -174 -144 -102 0
-138 -174 -144 -132 0
-138 -174 -102 -132 0
-138 -144 -102 -132 0
-139 0
-140 0
-141 0
-142 0
-144 0
143 0
179 137 107 0
-179 -137 0
-179 -107 0
-137 -107 0
145 146 147 148 149 150 0
-145 282 0
-146 283 0
-282 283 0
-282 -146 0
-147 284 0
-283 284 0
-283 -147 0
-148 285 0
-284 285 0
-284 -148 0
-149 286 0
-285 286 0
-285 -149 0
-286 -150 0
-145 181 151 0
-145 181 109 0
-145 151 109 0
-146 182 152 0
-146 182 110 0
-146 152 110 0
-147 183 153 0
-147 183 111 0
-147 153 111 0
-148 184 154 0
-148 184 112 0
-148 154 112 0
-149 185 155 0
-149 185 113 0
-149 155 113 0
-150 186 156 0
-150 186 114 0
-150 156 114 0
-145 -181 -151 -109 0
-146 -182 -152 -110 0
-147 -183 -153 -111 0
-148 -184 -154 -112 0
-149 -185 -155 -113 0
-150 -186 -156 -114 0
151 152 153 154 155 156 0
-151 287 0
-152 288 0
-287 288 0
-287 -152 0
-153 289 0
-288 289 0
-288 -153 0
-154 290 0
-289 290 0
-289 -154 0
-155 291 0
-290 291 0
-290 -155 0
-291 -156 0
-151 187 157 115 0
-151 187 157 145 0
-151 187 115 145 0
-151 157 115 145 0
-152 188 158 116 0
-152 188 158 146 0
-152 188 116 146 0
-152 158 116 146 0
-153 189 159 117 0
-153 189 159 147 0
-153 189 117 147 0
-153 159 117 147 0
-154 190 160 118 0
-154 190 160 148 0
-154 190 118 148 0
-154 160 118 148 0
-155 191 161 119 0
-155 191 161 149 0
-155 191 119 149 0
-155 161 119 149 0
-156 192 162 120 0
-156 192 162 150 0
-156 192 120 150 0
-156 162 120 150 0
-151 -187 -157 -115 0
-151 -187 -157 -145 0
-151 -187 -115 -145 0
-151 -157 -115 -145 0
-152 -188 -158 -116 0
-152 -188 -158 -146 0
-152 -188 -116 -146 0
-152 -158 -116 -146 0
-153 -189 -159 -117 0
-153 -189 -159 -147 0
-153 -189 -117 -147 0
-153 -159 -117 -147 0
-154 -190 -160 -118 0
-154 -190 -160 -148 0
-154 -190 -118 -148 0
-154 -160 -118 -148 0
-155 -191 -161 -119 0
-155 -191 -161 -149 0
-155 -191 -119 -149 0
-155 -161 -119 -149 0
-156 -192 -162 -120 0
-156 -192 -162 -150 0
-156 -192 -120 -150 0
-156 -162 -120 -150 0
157 158 159 160 161 162 0
-157 292 0
-158 293 0
-292 293 0
-292 -158 0
-159 294 0
-293 294 0
-293 -159 0
-160 295 0
-294 295 0
-294 -160 0
-161 296 0
-295 296 0
-295 -161 0
-296 -162 0
-157 193 163 121 0
-157 193 163 151 0
-157 193 121 151 0
-157 163 121 151 0
-158 194 164 122 0
-158 194 164 152 0
-158 194 122 152 0
-158 164 122 152 0
-159 195 165 123 0
-159 195 165 153 0
-159 195 123 153 0
-159 165 123 153 0
-160 196 166 124 0
-160 196 166 154 0
-160 196 124 154 0
-160 166 124 154 0
-161 197 167 125 0
-161 197 167 155 0
-161 197 125 155 0
-161 167 125 155 0
-162 198 168 126 0
-162 198 168 156 0
-162 198 126 156 0
-162 168 126 156 0
-157 -193 -163 -121 0
-157 -193 -163 -151 0
-157 -193 -121 -151 0
-157 -163 -121 -151 0
-158 -194 -164 -122 0
-158 -194 -164 -152 0
-158 -194 -122 -152 0
-158 -164 -122 -152 0
-159 -195 -165 -123 0
-159 -195 -165 -153 0
-159 -195 -123 -153 0
-159 -165 -123 -153 0
-160 -196 -166 -124 0
-160 -196 -166 -154 0
-160 -196 -124 -154 0
-160 -166 -124 -154 0
-161 -197 -167 -125 0
-161 -197 -167 -155 0
-161 -197 -125 -155 0
-161 -167 -125 -155 0
-162 -198 -168 -126 0
-162 -198 -168 -156 0
-162 -198 -126 -156 0
-162 -168 -126 -156 0
163 164 165 166 167 168 0
-163 297 0
-164 298 0
-297 298 0
-297 -164 0
-165 299 0
-298 299 0
-298 -165 0
-166 300 0
-299 300 0
-299 -166 0
-167 301 0
-300 301 0
-300 -167 0
-301 -168 0
-163 199 169 127 0
-163 199 169 157 0
-163 199 127 157 0
-163 169 127 157 0
-164 200 170 128 0
-164 200 170 158 0
-164 200 128 158 0
-164 170 128 158 0
-165 201 171 129 0
-165 201 171 159 0
-165 201 129 159 0
-165 171 129 159 0
-166 202 172 130 0
-166 202 172 160 0
-166 202 130 160 0
-166 172 130 160 0
-167 203 173 131 0
-167 203 173 161 0
-167 203 131 161 0
-167 173 131 161 0
-168 204 174 132 0
-168 204 174 162 0
-168 204 132 162 0
-168 174 132 162 0
-163 -199 -169 -127 0
-163 -199 -169 -157 0
-163 -199 -127 -157 0
-163 -169 -127 -157 0
-164 -200 -170 -128 0
-164 -200 -170 -158 0
-164 -200 -128 -158 0
-164 -170 -128 -158 0
-165 -201 -171 -129 0
-165 -201 -171 -159 0
-165 -201 -129 -159 0
-165 -171 -129 -159 0
-166 -202 -172 -130 0
-166 -202 -172 -160 0
-166 -202 -130 -160 0
-166 -172 -130 -160 0
-167 -203 -173 -131 0
-167 -203 -173 -161 0
-167 -203 -131 -161 0
-167 -173 -131 -161 0
-168 -204 -174 -132 0
-168 -204 -174 -162 0
-168 -204 -132 -162 0
-168 -174 -132 -162 0
-169 0
-170 0
-171 0
-172 0
-173 0
174 0
210 180 138 168 0
-210 -180 0
-210 -138 0
-210 -168 0
-180 -138 0
-180 -168 0
-138 -168 0
175 176 177 178 179 180 0
-175 302 0
-176 303 0
-302 303 0
-302 -176 0
-177 304 0
-303 304 0
-303 -177 0
-178 305 0
-304 305 0
-304 -178 0
-179 306 0
-305 306 0
-305 -179 0
-306 -180 0
-175 211 169 0
-175 211 139 0
-175 169 139 0
-176 212 170 0
-176 212 140 0
-176 170 140 0
-177 213 171 0
-177 213 141 0
-177 171 141 0
-178 214 172 0
-178 214 142 0
-178 172 142 0
-179 215 173 0
-179 215 143 0
-179 173 143 0
-180 216 174 0
-180 216 144 0
-180 174 144 0
-175 -211 -169 -139 0
-176 -212 -170 -140 0
-177 -213 -171 -141 0
-178 -214 -172 -142 0
-179 -215 -173 -143 0
-180 -216 -174 -144 0
181 182 183 184 185 186 0
-181 307 0
-182 308 0
-307 308 0
-307 -182 0
-183 309 0
-308 309 0
-308 -183 0
-184 310 0
-309 310 0
-309 -184 0
-185 311 0
-310 311 0
-310 -185 0
-311 -186 0
-181 145 0
-181 187 0
-182 146 0
-182 188 0
-183 147 0
-183 189 0
-184 148 0
-184 190 0
-185 149 0
-185 191 0
-186 150 0
-186 192 0
187 188 189 190 191 192 0
-187 312 0
-188 313 0
-312 313 0
-312 -188 0
-189 314 0
-313 314 0
-313 -189 0
-190 315 0
-314 315 0
-314 -190 0
-191 316 0
-315 316 0
-315 -191 0
-316 -192 0
-187 151 193 0
-187 151 181 0
-187 193 181 0
-188 152 194 0
-188 152 182 0
-188 194 182 0
-189 153 195 0
-189 153 183 0
-189 195 183 0
-190 154 196 0
-190 154 184 0
-190 196 184 0
-191 155 197 0
-191 155 185 0
-191 197 185 0
-192 156 198 0
-192 156 186 0
-192 198 186 0
-187 -151 -193 -181 0
-188 -152 -194 -182 0
-189 -153 -195 -183 0
-190 -154 -196 -184 0
-191 -155 -197 -185 0
-192 -156 -198 -186 0
193 194 195 196 197 198 0
-193 317 0
-194 318 0
-317 318 0
-317 -194 0
-195 319 0
-318 319 0
-318 -195 0
-196 320 0
-319 320 0
-319 -196 0
-197 321 0
-320 321 0
-320 -197 0
-321 -198 0
-193 157 199 0
-193 157 187 0
-193 199 187 0
-194 158 200 0
-194 158 188 0
-194 200 188 0
-195 159 201 0
-195 159 189 0
-195 201 189 0
-196 160 202 0
-196 160 190 0
-196 202 190 0
-197 161 203 0
-197 161 191 0
-197 203 191 0
-198 162 204 0
-198 162 192 0
-198 204 192 0
-193 -157 -199 -187 0
-194 -158 -200 -188 0
-195 -159 -201 -189 0
-196 -160 -202 -190 0
-197 -161 -203 -191 0
-198 -162 -204 -192 0
199 200 201 202 203 204 0
-199 322 0
-200 323 0
-322 323 0
-322 -200 0
-201 324 0
-323 324 0
-323 -201 0
-202 325 0
-324 325 0
-324 -202 0
-203 326 0
-325 326 0
-325 -203 0
-326 -204 0
-199 163 205 0
-199 163 193 0
-199 205 193 0
-200 164 206 0
-200 164 194 0
-200 206 194 0
-201 165 207 0
-201 165 195 0
-201 207 195 0
-202 166 208 0
-202 166 196 0
-202 208 196 0
-203 167 209 0
-203 167 197 0
-203 209 197 0
-204 168 210 0
-204 168 198 0
-204 210 198 0
-199 -163 -205 -193 0
-200 -164 -206 -194 0
-201 -165 -207 -195 0
-202 -166 -208 -196 0
-203 -167 -209 -197 0
-204 -168 -210 -198 0
205 206 207 208 209 210 0
-205 327 0
-206 328 0
-327 328 0
-327 -206 0
-207 329 0
-328 329 0
-328 -207 0
-208 330 0
-329 330 0
-329 -208 0
-209 331 0
-330 331 0
-330 -209 0
-331 -210 0
-205 169 211 0
-205 169 199 0
-205 211 199 0
-206 170 212 0
-206 170 200 0
-206 212 200 0
-207 171 213 0
-207 171 201 0
-207 213 201 0
-208 172 214 0
-208 172 202 0
-208 214 202 0
-209 173 215 0
-209 173 203 0
-209 215 203 0
-210 174 216 0
-210 174 204 0
-210 216 204 0
-205 -169 -211 -199 0
-206 -170 -212 -200 0
-207 -171 -213 -201 0
-208 -172 -214 -202 0
-209 -173 -215 -203 0
-210 -174 -216 -204 0
211 212 213 214 215 216 0
-211 332 0
-212 333 0
-332 333 0
-332 -212 0
-213 334 0
-333 334 0
-333 -213 0
-214 335 0
-334 335 0
-334 -214 0
-215 336 0
-335 336 0
-335 -215 0
-336 -216 0
-211 175 0
-211 205 0
-212 176 0
-212 206 0
-213 177 0
-213 207 0
-214 178 0
-214 208 0
-215 179 0
-215 209 0
-216 180 0
-216 210 0
7 43 79 151 187 0
13 121 157 193 0
19 55 127 163 199 0
25 97 133 205 0
8 44 80 152 188 0
22 58 130 166 202 0
28 100 136 208 0
11 47 83 155 191 0
17 125 161 197 0
23 59 131 167 203 0
29 101 137 209 0
18 126 162 198 0
24 60 132 168 204 0